7
0, 178, 553, 202, 190, 440, 499
178, 0, 587, 379, 247, 607, 564
553, 587, 0, 612, 365, 533, 107
202, 379, 612, 0, 311, 292, 528
190, 247, 365, 311, 0, 421, 323
440, 607, 533, 292, 421, 0, 427
499, 564, 107, 528, 323, 427, 0
